3 3 2
20 2 45 1 13 2 46 0 2 1 45 2 5 1 38 0 39 2 36 0 31 2 45 1 14 0 0 2 40 1 4 0 36 2 5 1 10 2 10 1 35 
20 0 1 2 44 1 11 0 13 2 13 1 27 0 6 1 25 2 47 1 38 0 12 1 26 0 24 2 1 0 6 2 43 1 21 0 6 2 47 0 9 
20 2 38 0 19 2 11 0 26 2 36 1 32 0 15 1 18 2 22 1 44 0 19 2 7 0 34 1 21 0 26 1 14 0 37 2 24 1 17 2 47 

-------------
